c array.sh: path:     /data/qbf/qbf20/PCNF/exquery_query71_1344n.qdimacs
c array.sh: name:     exquery_query71_1344n
c array.sh: task:     47
c array.sh: host:     c3n24
c array.sh: uname:    Linux c3n24 4.15.0-135-generic #139-Ubuntu SMP Mon Jan 18 17:38:24 UTC 2021 x86_64 x86_64 x86_64 GNU/Linux
c array.sh: start:    Thu Feb 18 09:53:05 CET 2021
c array.sh: noturbo:  1
c array.sh: governor: 32 performance
c array.sh: tmp:      1%
c array.sh: unzipped: /tmp/local-unzipped-18838260-47-exquery_query71_1344n.cnf
*** qbfcert: using tmp directory:
*** qbfcert:   /tmp
trace-size: 23075617
solving-res 20
proof-size: 35960
cert-size: 2142
cert-header: aag 505 447 0 33 33
merged-header: p cnf 4833 11567
merged-size: 162727
c ---- [ banner ] ------------------------------------------------------------
c
c KISSAT SAT Solver
c Copyright (c) 2019-2020 Armin Biere JKU Linz
c 
c Version 1.0.3 59813addcacc4d6fb880ebdd63685600475aa940
c gcc (Ubuntu 7.5.0-3ubuntu1~18.04) 7.5.0 -W -Wall -O3 -DNEMBEDDED -DNDEBUG -DNMETRICS -DNSTATISTICS
c Sun Feb 14 23:58:54 CET 2021 Linux cluster3 4.15.0-135-generic x86_64
c
c ---- [ parsing ] -----------------------------------------------------------
c
c opened and reading DIMACS file:
c 
c   /tmp/qbfcert_merged_cnf11160.cnf
c 
c parsed 'p cnf 4833 11567' header
c closing input after reading 162727 bytes (159 KB)
c finished parsing after 0.00 seconds
c
c ---- [ solving ] -----------------------------------------------------------
c
c  seconds reductions redundant irredundant
c         MB   restarts    trail     variables
c          level  conflicts   glue       remaining
c
c *  0.00  3 0  0  0   0   0 0% 0 11539 657 14%
c {  0.00  3 0  0  0   0   0 0% 0 11539 657 14%
c i  0.00  3 1  0  0   1   0 12% 0 11539 634 13%
c i  0.00  3 1  0  0   2   0 19% 0 11539 631 13%
c i  0.00  3 3  0  1   3   0 25% 0 11539 596 12%
c i  0.00  3 3  0  2   4   0 26% 0 11539 581 12%
c i  0.00  3 3  0  3   5   0 26% 0 11539 532 11%
c }  0.00  3 2  0  3   7   0 18% 0 11539 497 10%
c 0  0.00  3 2  0  3   7   0 18% 0 11539 497 10%
c
c ---- [ result ] ------------------------------------------------------------
c
s UNSATISFIABLE
c
c ---- [ profiling ] ---------------------------------------------------------
c
c           0.00   86.42 %  parse
c           0.00    9.55 %  search
c           0.00    7.52 %  focused
c           0.00    0.00 %  simplify
c =============================================
c           0.00  100.00 %  total
c
c ---- [ statistics ] --------------------------------------------------------
c
c conflicts:                                7             1493.17 per second
c decisions:                               14                2.00 per conflict
c propagations:                          4613           984002    per second
c restarts:                                 3                2.33 interval
c
c ---- [ resources ] ---------------------------------------------------------
c
c maximum-resident-set-size:          3121152 bytes          3 MB
c process-time:                             0s               0.00 seconds
c
c ---- [ shutting down ] -----------------------------------------------------
c
c exit 20
*** qbfcert: VALID
c array.sh: end:      Thu Feb 18 09:53:07 CET 2021
